\ Generated by MPModelProtoExporter
\   Name             : 
\   Format           : Free
\   Constraints      : 282
\   Variables        : 80
\     Binary         : 80
\     Integer        : 0
\     Continuous     : 0
Minimize
 Obj: +48.187 mainDB_firePolice +48.187 mainDB_studentCenter +363.924 mainDB_uc_cloud +6.376 detector_parkingServices +24.886 detector_firePolice +166.035 detector_uc_cloud +12.486 recognizer_mannLab +56.215 recognizer_isp +0.022 traje_parkingServices +0.0168 traje_lifeSciences +0.0168 traje_firePolice +0.0168 traje_studentCenter +0.116 traje_uc_cloud +0.0042 logger_sciencesLectureHall 
Subject to
 one_node_mainDB: +1 mainDB_firePolice +1 mainDB_studentCenter +1 mainDB_uc_cloud  = 1
 one_node_detector: +1 detector_parkingServices +1 detector_firePolice +1 detector_uc_cloud  = 1
 one_node_recognizer: +1 recognizer_mannLab +1 recognizer_isp  = 1
 one_node_traje: +1 traje_parkingServices +1 traje_lifeSciences +1 traje_firePolice +1 traje_studentCenter +1 traje_uc_cloud  = 1
 one_node_logger: +1 logger_sciencesLectureHall  = 1
 hw_parkingServices: +20 detector_parkingServices +5 traje_parkingServices  <= 99
 hw_westEntry:  <= 99
 hw_kleiberHall:  <= 149
 hw_hoaglandAnnex:  <= 149
 hw_briggsHall:  <= 179
 hw_mannLab: +10 recognizer_mannLab  <= 255
 hw_lifeSciences: +5 traje_lifeSciences  <= 255
 hw_sciencesLectureHall: +2 logger_sciencesLectureHall  <= 255
 hw_firePolice: +50 mainDB_firePolice +20 detector_firePolice +5 traje_firePolice  <= 511
 hw_studentCenter: +50 mainDB_studentCenter +5 traje_studentCenter  <= 511
 hw_isp: +10 recognizer_isp  <= 599
 hw_uc_cloud: +50 mainDB_uc_cloud +20 detector_uc_cloud +5 traje_uc_cloud  <= 9999
 bin_mainDB_parkingServices: +1 b_parkingServices  >= 0
 bin_mainDB_westEntry: +1 b_westEntry  >= 0
 bin_mainDB_kleiberHall: +1 b_kleiberHall  >= 0
 bin_mainDB_hoaglandAnnex: +1 b_hoaglandAnnex  >= 0
 bin_mainDB_briggsHall: +1 b_briggsHall  >= 0
 bin_mainDB_mannLab: +1 b_mannLab  >= 0
 bin_mainDB_lifeSciences: +1 b_lifeSciences  >= 0
 bin_mainDB_sciencesLectureHall: +1 b_sciencesLectureHall  >= 0
 bin_mainDB_firePolice: -1 b_firePolice +1 mainDB_firePolice  <= 0
 bin_mainDB_studentCenter: -1 b_studentCenter +1 mainDB_studentCenter  <= 0
 bin_mainDB_isp: +1 b_isp  >= 0
 bin_mainDB_uc_cloud: -1 b_uc_cloud +1 mainDB_uc_cloud  <= 0
 bin_detector_parkingServices: -1 b_parkingServices +1 detector_parkingServices  <= 0
 bin_detector_westEntry: +1 b_westEntry  >= 0
 bin_detector_kleiberHall: +1 b_kleiberHall  >= 0
 bin_detector_hoaglandAnnex: +1 b_hoaglandAnnex  >= 0
 bin_detector_briggsHall: +1 b_briggsHall  >= 0
 bin_detector_mannLab: +1 b_mannLab  >= 0
 bin_detector_lifeSciences: +1 b_lifeSciences  >= 0
 bin_detector_sciencesLectureHall: +1 b_sciencesLectureHall  >= 0
 bin_detector_firePolice: -1 b_firePolice +1 detector_firePolice  <= 0
 bin_detector_studentCenter: +1 b_studentCenter  >= 0
 bin_detector_isp: +1 b_isp  >= 0
 bin_detector_uc_cloud: -1 b_uc_cloud +1 detector_uc_cloud  <= 0
 bin_recognizer_parkingServices: +1 b_parkingServices  >= 0
 bin_recognizer_westEntry: +1 b_westEntry  >= 0
 bin_recognizer_kleiberHall: +1 b_kleiberHall  >= 0
 bin_recognizer_hoaglandAnnex: +1 b_hoaglandAnnex  >= 0
 bin_recognizer_briggsHall: +1 b_briggsHall  >= 0
 bin_recognizer_mannLab: -1 b_mannLab +1 recognizer_mannLab  <= 0
 bin_recognizer_lifeSciences: +1 b_lifeSciences  >= 0
 bin_recognizer_sciencesLectureHall: +1 b_sciencesLectureHall  >= 0
 bin_recognizer_firePolice: +1 b_firePolice  >= 0
 bin_recognizer_studentCenter: +1 b_studentCenter  >= 0
 bin_recognizer_isp: -1 b_isp +1 recognizer_isp  <= 0
 bin_recognizer_uc_cloud: +1 b_uc_cloud  >= 0
 bin_traje_parkingServices: -1 b_parkingServices +1 traje_parkingServices  <= 0
 bin_traje_westEntry: +1 b_westEntry  >= 0
 bin_traje_kleiberHall: +1 b_kleiberHall  >= 0
 bin_traje_hoaglandAnnex: +1 b_hoaglandAnnex  >= 0
 bin_traje_briggsHall: +1 b_briggsHall  >= 0
 bin_traje_mannLab: +1 b_mannLab  >= 0
 bin_traje_lifeSciences: -1 b_lifeSciences +1 traje_lifeSciences  <= 0
 bin_traje_sciencesLectureHall: +1 b_sciencesLectureHall  >= 0
 bin_traje_firePolice: -1 b_firePolice +1 traje_firePolice  <= 0
 bin_traje_studentCenter: -1 b_studentCenter +1 traje_studentCenter  <= 0
 bin_traje_isp: +1 b_isp  >= 0
 bin_traje_uc_cloud: -1 b_uc_cloud +1 traje_uc_cloud  <= 0
 bin_logger_parkingServices: +1 b_parkingServices  >= 0
 bin_logger_westEntry: +1 b_westEntry  >= 0
 bin_logger_kleiberHall: +1 b_kleiberHall  >= 0
 bin_logger_hoaglandAnnex: +1 b_hoaglandAnnex  >= 0
 bin_logger_briggsHall: +1 b_briggsHall  >= 0
 bin_logger_mannLab: +1 b_mannLab  >= 0
 bin_logger_lifeSciences: +1 b_lifeSciences  >= 0
 bin_logger_sciencesLectureHall: -1 b_sciencesLectureHall +1 logger_sciencesLectureHall  <= 0
 bin_logger_firePolice: +1 b_firePolice  >= 0
 bin_logger_studentCenter: +1 b_studentCenter  >= 0
 bin_logger_isp: +1 b_isp  >= 0
 bin_logger_uc_cloud: +1 b_uc_cloud  >= 0
 budget: +1 b_parkingServices +1 b_westEntry +1 b_kleiberHall +1 b_hoaglandAnnex +1 b_briggsHall +1 b_mannLab +1 b_lifeSciences +1 b_sciencesLectureHall +1 b_firePolice +1 b_studentCenter +1 b_isp +1 b_uc_cloud  <= 5
 lin_1_detector_recognizer_parkingServices_mannLab: -1 detector_parkingServices +1 detector_recognizer_parkingServices_mannLab  <= 0
 lin_2_detector_recognizer_parkingServices_mannLab: -1 recognizer_mannLab +1 detector_recognizer_parkingServices_mannLab  <= 0
 lin_3_detector_recognizer_parkingServices_mannLab: -1 detector_parkingServices -1 recognizer_mannLab +1 detector_recognizer_parkingServices_mannLab  >= -1
 parkingServices_mannLab_bw_rhs: +2.5 detector_recognizer_parkingServices_mannLab  <= 97
 parkingServices_mannLab_bw_lhs: +2.5 detector_recognizer_parkingServices_mannLab  >= 0
 lin_1_traje_logger_parkingServices_sciencesLectureHall: -1 traje_parkingServices +1 traje_logger_parkingServices_sciencesLectureHall  <= 0
 lin_2_traje_logger_parkingServices_sciencesLectureHall: -1 logger_sciencesLectureHall +1 traje_logger_parkingServices_sciencesLectureHall  <= 0
 lin_3_traje_logger_parkingServices_sciencesLectureHall: -1 traje_parkingServices -1 logger_sciencesLectureHall +1 traje_logger_parkingServices_sciencesLectureHall  >= -1
 parkingServices_sciencesLectureHall_bw_rhs: +2.5 traje_logger_parkingServices_sciencesLectureHall  <= 97
 parkingServices_sciencesLectureHall_bw_lhs: +2.5 traje_logger_parkingServices_sciencesLectureHall  >= 0
 lin_1_detector_recognizer_parkingServices_isp: -1 detector_parkingServices +1 detector_recognizer_parkingServices_isp  <= 0
 lin_2_detector_recognizer_parkingServices_isp: -1 recognizer_isp +1 detector_recognizer_parkingServices_isp  <= 0
 lin_3_detector_recognizer_parkingServices_isp: -1 detector_parkingServices -1 recognizer_isp +1 detector_recognizer_parkingServices_isp  >= -1
 parkingServices_isp_bw_rhs: +2.5 detector_recognizer_parkingServices_isp  <= 97
 parkingServices_isp_bw_lhs: +2.5 detector_recognizer_parkingServices_isp  >= 0
 lin_1_cam11_mainDB_westEntry_firePolice: +1 cam11_mainDB_westEntry_firePolice  <= 1
 lin_2_cam11_mainDB_westEntry_firePolice: -1 mainDB_firePolice +1 cam11_mainDB_westEntry_firePolice  <= 0
 lin_3_cam11_mainDB_westEntry_firePolice: -1 mainDB_firePolice +1 cam11_mainDB_westEntry_firePolice  >= 0
 lin_1_cam21_mainDB_westEntry_firePolice: +1 cam21_mainDB_westEntry_firePolice  <= 1
 lin_2_cam21_mainDB_westEntry_firePolice: -1 mainDB_firePolice +1 cam21_mainDB_westEntry_firePolice  <= 0
 lin_3_cam21_mainDB_westEntry_firePolice: -1 mainDB_firePolice +1 cam21_mainDB_westEntry_firePolice  >= 0
 westEntry_firePolice_bw_rhs: +2.5 cam11_mainDB_westEntry_firePolice +2.5 cam21_mainDB_westEntry_firePolice  <= 97
 westEntry_firePolice_bw_lhs: +2.5 cam11_mainDB_westEntry_firePolice +2.5 cam21_mainDB_westEntry_firePolice  >= 0
 lin_1_cam11_mainDB_westEntry_studentCenter: +1 cam11_mainDB_westEntry_studentCenter  <= 1
 lin_2_cam11_mainDB_westEntry_studentCenter: -1 mainDB_studentCenter +1 cam11_mainDB_westEntry_studentCenter  <= 0
 lin_3_cam11_mainDB_westEntry_studentCenter: -1 mainDB_studentCenter +1 cam11_mainDB_westEntry_studentCenter  >= 0
 lin_1_cam21_mainDB_westEntry_studentCenter: +1 cam21_mainDB_westEntry_studentCenter  <= 1
 lin_2_cam21_mainDB_westEntry_studentCenter: -1 mainDB_studentCenter +1 cam21_mainDB_westEntry_studentCenter  <= 0
 lin_3_cam21_mainDB_westEntry_studentCenter: -1 mainDB_studentCenter +1 cam21_mainDB_westEntry_studentCenter  >= 0
 westEntry_studentCenter_bw_rhs: +2.5 cam11_mainDB_westEntry_studentCenter +2.5 cam21_mainDB_westEntry_studentCenter  <= 97
 westEntry_studentCenter_bw_lhs: +2.5 cam11_mainDB_westEntry_studentCenter +2.5 cam21_mainDB_westEntry_studentCenter  >= 0
 lin_1_cam11_mainDB_westEntry_uc_cloud: +1 cam11_mainDB_westEntry_uc_cloud  <= 1
 lin_2_cam11_mainDB_westEntry_uc_cloud: -1 mainDB_uc_cloud +1 cam11_mainDB_westEntry_uc_cloud  <= 0
 lin_3_cam11_mainDB_westEntry_uc_cloud: -1 mainDB_uc_cloud +1 cam11_mainDB_westEntry_uc_cloud  >= 0
 lin_1_cam21_mainDB_westEntry_uc_cloud: +1 cam21_mainDB_westEntry_uc_cloud  <= 1
 lin_2_cam21_mainDB_westEntry_uc_cloud: -1 mainDB_uc_cloud +1 cam21_mainDB_westEntry_uc_cloud  <= 0
 lin_3_cam21_mainDB_westEntry_uc_cloud: -1 mainDB_uc_cloud +1 cam21_mainDB_westEntry_uc_cloud  >= 0
 westEntry_uc_cloud_bw_rhs: +2.5 cam11_mainDB_westEntry_uc_cloud +2.5 cam21_mainDB_westEntry_uc_cloud  <= 97
 westEntry_uc_cloud_bw_lhs: +2.5 cam11_mainDB_westEntry_uc_cloud +2.5 cam21_mainDB_westEntry_uc_cloud  >= 0
 lin_1_recognizer_traje_mannLab_parkingServices: -1 recognizer_mannLab +1 recognizer_traje_mannLab_parkingServices  <= 0
 lin_2_recognizer_traje_mannLab_parkingServices: -1 traje_parkingServices +1 recognizer_traje_mannLab_parkingServices  <= 0
 lin_3_recognizer_traje_mannLab_parkingServices: -1 recognizer_mannLab -1 traje_parkingServices +1 recognizer_traje_mannLab_parkingServices  >= -1
 mannLab_parkingServices_bw_rhs: +2.5 recognizer_traje_mannLab_parkingServices  <= 97
 mannLab_parkingServices_bw_lhs: +2.5 recognizer_traje_mannLab_parkingServices  >= 0
 lin_1_recognizer_traje_mannLab_lifeSciences: -1 recognizer_mannLab +1 recognizer_traje_mannLab_lifeSciences  <= 0
 lin_2_recognizer_traje_mannLab_lifeSciences: -1 traje_lifeSciences +1 recognizer_traje_mannLab_lifeSciences  <= 0
 lin_3_recognizer_traje_mannLab_lifeSciences: -1 recognizer_mannLab -1 traje_lifeSciences +1 recognizer_traje_mannLab_lifeSciences  >= -1
 mannLab_lifeSciences_bw_rhs: +2.5 recognizer_traje_mannLab_lifeSciences  <= 97
 mannLab_lifeSciences_bw_lhs: +2.5 recognizer_traje_mannLab_lifeSciences  >= 0
 lin_1_recognizer_traje_mannLab_firePolice: -1 recognizer_mannLab +1 recognizer_traje_mannLab_firePolice  <= 0
 lin_2_recognizer_traje_mannLab_firePolice: -1 traje_firePolice +1 recognizer_traje_mannLab_firePolice  <= 0
 lin_3_recognizer_traje_mannLab_firePolice: -1 recognizer_mannLab -1 traje_firePolice +1 recognizer_traje_mannLab_firePolice  >= -1
 lin_1_recognizer_mainDB_mannLab_firePolice: -1 recognizer_mannLab +1 recognizer_mainDB_mannLab_firePolice  <= 0
 lin_2_recognizer_mainDB_mannLab_firePolice: -1 mainDB_firePolice +1 recognizer_mainDB_mannLab_firePolice  <= 0
 lin_3_recognizer_mainDB_mannLab_firePolice: -1 mainDB_firePolice -1 recognizer_mannLab +1 recognizer_mainDB_mannLab_firePolice  >= -1
 mannLab_firePolice_bw_rhs: +2.5 recognizer_traje_mannLab_firePolice +2.5 recognizer_mainDB_mannLab_firePolice  <= 97
 mannLab_firePolice_bw_lhs: +2.5 recognizer_traje_mannLab_firePolice +2.5 recognizer_mainDB_mannLab_firePolice  >= 0
 lin_1_recognizer_traje_mannLab_studentCenter: -1 recognizer_mannLab +1 recognizer_traje_mannLab_studentCenter  <= 0
 lin_2_recognizer_traje_mannLab_studentCenter: -1 traje_studentCenter +1 recognizer_traje_mannLab_studentCenter  <= 0
 lin_3_recognizer_traje_mannLab_studentCenter: -1 recognizer_mannLab -1 traje_studentCenter +1 recognizer_traje_mannLab_studentCenter  >= -1
 lin_1_recognizer_mainDB_mannLab_studentCenter: -1 recognizer_mannLab +1 recognizer_mainDB_mannLab_studentCenter  <= 0
 lin_2_recognizer_mainDB_mannLab_studentCenter: -1 mainDB_studentCenter +1 recognizer_mainDB_mannLab_studentCenter  <= 0
 lin_3_recognizer_mainDB_mannLab_studentCenter: -1 mainDB_studentCenter -1 recognizer_mannLab +1 recognizer_mainDB_mannLab_studentCenter  >= -1
 mannLab_studentCenter_bw_rhs: +2.5 recognizer_traje_mannLab_studentCenter +2.5 recognizer_mainDB_mannLab_studentCenter  <= 97
 mannLab_studentCenter_bw_lhs: +2.5 recognizer_traje_mannLab_studentCenter +2.5 recognizer_mainDB_mannLab_studentCenter  >= 0
 lin_1_recognizer_traje_mannLab_uc_cloud: -1 recognizer_mannLab +1 recognizer_traje_mannLab_uc_cloud  <= 0
 lin_2_recognizer_traje_mannLab_uc_cloud: -1 traje_uc_cloud +1 recognizer_traje_mannLab_uc_cloud  <= 0
 lin_3_recognizer_traje_mannLab_uc_cloud: -1 recognizer_mannLab -1 traje_uc_cloud +1 recognizer_traje_mannLab_uc_cloud  >= -1
 lin_1_recognizer_mainDB_mannLab_uc_cloud: -1 recognizer_mannLab +1 recognizer_mainDB_mannLab_uc_cloud  <= 0
 lin_2_recognizer_mainDB_mannLab_uc_cloud: -1 mainDB_uc_cloud +1 recognizer_mainDB_mannLab_uc_cloud  <= 0
 lin_3_recognizer_mainDB_mannLab_uc_cloud: -1 mainDB_uc_cloud -1 recognizer_mannLab +1 recognizer_mainDB_mannLab_uc_cloud  >= -1
 mannLab_uc_cloud_bw_rhs: +2.5 recognizer_traje_mannLab_uc_cloud +2.5 recognizer_mainDB_mannLab_uc_cloud  <= 97
 mannLab_uc_cloud_bw_lhs: +2.5 recognizer_traje_mannLab_uc_cloud +2.5 recognizer_mainDB_mannLab_uc_cloud  >= 0
 lin_1_cam12_detector_lifeSciences_parkingServices: +1 cam12_detector_lifeSciences_parkingServices  <= 1
 lin_2_cam12_detector_lifeSciences_parkingServices: -1 detector_parkingServices +1 cam12_detector_lifeSciences_parkingServices  <= 0
 lin_3_cam12_detector_lifeSciences_parkingServices: -1 detector_parkingServices +1 cam12_detector_lifeSciences_parkingServices  >= 0
 lin_1_cam22_detector_lifeSciences_parkingServices: +1 cam22_detector_lifeSciences_parkingServices  <= 1
 lin_2_cam22_detector_lifeSciences_parkingServices: -1 detector_parkingServices +1 cam22_detector_lifeSciences_parkingServices  <= 0
 lin_3_cam22_detector_lifeSciences_parkingServices: -1 detector_parkingServices +1 cam22_detector_lifeSciences_parkingServices  >= 0
 lifeSciences_parkingServices_bw_rhs: +2.5 cam12_detector_lifeSciences_parkingServices +2.5 cam22_detector_lifeSciences_parkingServices  <= 97
 lifeSciences_parkingServices_bw_lhs: +2.5 cam12_detector_lifeSciences_parkingServices +2.5 cam22_detector_lifeSciences_parkingServices  >= 0
 lin_1_traje_logger_lifeSciences_sciencesLectureHall: -1 traje_lifeSciences +1 traje_logger_lifeSciences_sciencesLectureHall  <= 0
 lin_2_traje_logger_lifeSciences_sciencesLectureHall: -1 logger_sciencesLectureHall +1 traje_logger_lifeSciences_sciencesLectureHall  <= 0
 lin_3_traje_logger_lifeSciences_sciencesLectureHall: -1 traje_lifeSciences -1 logger_sciencesLectureHall +1 traje_logger_lifeSciences_sciencesLectureHall  >= -1
 lifeSciences_sciencesLectureHall_bw_rhs: +2.5 traje_logger_lifeSciences_sciencesLectureHall  <= 97
 lifeSciences_sciencesLectureHall_bw_lhs: +2.5 traje_logger_lifeSciences_sciencesLectureHall  >= 0
 lin_1_cam12_detector_lifeSciences_firePolice: +1 cam12_detector_lifeSciences_firePolice  <= 1
 lin_2_cam12_detector_lifeSciences_firePolice: -1 detector_firePolice +1 cam12_detector_lifeSciences_firePolice  <= 0
 lin_3_cam12_detector_lifeSciences_firePolice: -1 detector_firePolice +1 cam12_detector_lifeSciences_firePolice  >= 0
 lin_1_cam22_detector_lifeSciences_firePolice: +1 cam22_detector_lifeSciences_firePolice  <= 1
 lin_2_cam22_detector_lifeSciences_firePolice: -1 detector_firePolice +1 cam22_detector_lifeSciences_firePolice  <= 0
 lin_3_cam22_detector_lifeSciences_firePolice: -1 detector_firePolice +1 cam22_detector_lifeSciences_firePolice  >= 0
 lifeSciences_firePolice_bw_rhs: +2.5 cam12_detector_lifeSciences_firePolice +2.5 cam22_detector_lifeSciences_firePolice  <= 97
 lifeSciences_firePolice_bw_lhs: +2.5 cam12_detector_lifeSciences_firePolice +2.5 cam22_detector_lifeSciences_firePolice  >= 0
 lin_1_cam12_detector_lifeSciences_uc_cloud: +1 cam12_detector_lifeSciences_uc_cloud  <= 1
 lin_2_cam12_detector_lifeSciences_uc_cloud: -1 detector_uc_cloud +1 cam12_detector_lifeSciences_uc_cloud  <= 0
 lin_3_cam12_detector_lifeSciences_uc_cloud: -1 detector_uc_cloud +1 cam12_detector_lifeSciences_uc_cloud  >= 0
 lin_1_cam22_detector_lifeSciences_uc_cloud: +1 cam22_detector_lifeSciences_uc_cloud  <= 1
 lin_2_cam22_detector_lifeSciences_uc_cloud: -1 detector_uc_cloud +1 cam22_detector_lifeSciences_uc_cloud  <= 0
 lin_3_cam22_detector_lifeSciences_uc_cloud: -1 detector_uc_cloud +1 cam22_detector_lifeSciences_uc_cloud  >= 0
 lifeSciences_uc_cloud_bw_rhs: +2.5 cam12_detector_lifeSciences_uc_cloud +2.5 cam22_detector_lifeSciences_uc_cloud  <= 97
 lifeSciences_uc_cloud_bw_lhs: +2.5 cam12_detector_lifeSciences_uc_cloud +2.5 cam22_detector_lifeSciences_uc_cloud  >= 0
 lin_1_logger_mainDB_sciencesLectureHall_firePolice: -1 logger_sciencesLectureHall +1 logger_mainDB_sciencesLectureHall_firePolice  <= 0
 lin_2_logger_mainDB_sciencesLectureHall_firePolice: -1 mainDB_firePolice +1 logger_mainDB_sciencesLectureHall_firePolice  <= 0
 lin_3_logger_mainDB_sciencesLectureHall_firePolice: -1 mainDB_firePolice -1 logger_sciencesLectureHall +1 logger_mainDB_sciencesLectureHall_firePolice  >= -1
 sciencesLectureHall_firePolice_bw_rhs: +2.5 logger_mainDB_sciencesLectureHall_firePolice  <= 97
 sciencesLectureHall_firePolice_bw_lhs: +2.5 logger_mainDB_sciencesLectureHall_firePolice  >= 0
 lin_1_logger_mainDB_sciencesLectureHall_studentCenter: -1 logger_sciencesLectureHall +1 logger_mainDB_sciencesLectureHall_studentCenter  <= 0
 lin_2_logger_mainDB_sciencesLectureHall_studentCenter: -1 mainDB_studentCenter +1 logger_mainDB_sciencesLectureHall_studentCenter  <= 0
 lin_3_logger_mainDB_sciencesLectureHall_studentCenter: -1 mainDB_studentCenter -1 logger_sciencesLectureHall +1 logger_mainDB_sciencesLectureHall_studentCenter  >= -1
 sciencesLectureHall_studentCenter_bw_rhs: +2.5 logger_mainDB_sciencesLectureHall_studentCenter  <= 97
 sciencesLectureHall_studentCenter_bw_lhs: +2.5 logger_mainDB_sciencesLectureHall_studentCenter  >= 0
 lin_1_logger_mainDB_sciencesLectureHall_uc_cloud: -1 logger_sciencesLectureHall +1 logger_mainDB_sciencesLectureHall_uc_cloud  <= 0
 lin_2_logger_mainDB_sciencesLectureHall_uc_cloud: -1 mainDB_uc_cloud +1 logger_mainDB_sciencesLectureHall_uc_cloud  <= 0
 lin_3_logger_mainDB_sciencesLectureHall_uc_cloud: -1 mainDB_uc_cloud -1 logger_sciencesLectureHall +1 logger_mainDB_sciencesLectureHall_uc_cloud  >= -1
 sciencesLectureHall_uc_cloud_bw_rhs: +2.5 logger_mainDB_sciencesLectureHall_uc_cloud  <= 97
 sciencesLectureHall_uc_cloud_bw_lhs: +2.5 logger_mainDB_sciencesLectureHall_uc_cloud  >= 0
 lin_1_mainDB_traje_firePolice_parkingServices: -1 mainDB_firePolice +1 mainDB_traje_firePolice_parkingServices  <= 0
 lin_2_mainDB_traje_firePolice_parkingServices: -1 traje_parkingServices +1 mainDB_traje_firePolice_parkingServices  <= 0
 lin_3_mainDB_traje_firePolice_parkingServices: -1 mainDB_firePolice -1 traje_parkingServices +1 mainDB_traje_firePolice_parkingServices  >= -1
 firePolice_parkingServices_bw_rhs: +2.5 mainDB_traje_firePolice_parkingServices  <= 97
 firePolice_parkingServices_bw_lhs: +2.5 mainDB_traje_firePolice_parkingServices  >= 0
 lin_1_detector_recognizer_firePolice_mannLab: -1 detector_firePolice +1 detector_recognizer_firePolice_mannLab  <= 0
 lin_2_detector_recognizer_firePolice_mannLab: -1 recognizer_mannLab +1 detector_recognizer_firePolice_mannLab  <= 0
 lin_3_detector_recognizer_firePolice_mannLab: -1 detector_firePolice -1 recognizer_mannLab +1 detector_recognizer_firePolice_mannLab  >= -1
 firePolice_mannLab_bw_rhs: +2.5 detector_recognizer_firePolice_mannLab  <= 97
 firePolice_mannLab_bw_lhs: +2.5 detector_recognizer_firePolice_mannLab  >= 0
 lin_1_mainDB_traje_firePolice_lifeSciences: -1 mainDB_firePolice +1 mainDB_traje_firePolice_lifeSciences  <= 0
 lin_2_mainDB_traje_firePolice_lifeSciences: -1 traje_lifeSciences +1 mainDB_traje_firePolice_lifeSciences  <= 0
 lin_3_mainDB_traje_firePolice_lifeSciences: -1 mainDB_firePolice -1 traje_lifeSciences +1 mainDB_traje_firePolice_lifeSciences  >= -1
 firePolice_lifeSciences_bw_rhs: +2.5 mainDB_traje_firePolice_lifeSciences  <= 97
 firePolice_lifeSciences_bw_lhs: +2.5 mainDB_traje_firePolice_lifeSciences  >= 0
 lin_1_traje_logger_firePolice_sciencesLectureHall: -1 traje_firePolice +1 traje_logger_firePolice_sciencesLectureHall  <= 0
 lin_2_traje_logger_firePolice_sciencesLectureHall: -1 logger_sciencesLectureHall +1 traje_logger_firePolice_sciencesLectureHall  <= 0
 lin_3_traje_logger_firePolice_sciencesLectureHall: -1 traje_firePolice -1 logger_sciencesLectureHall +1 traje_logger_firePolice_sciencesLectureHall  >= -1
 firePolice_sciencesLectureHall_bw_rhs: +2.5 traje_logger_firePolice_sciencesLectureHall  <= 97
 firePolice_sciencesLectureHall_bw_lhs: +2.5 traje_logger_firePolice_sciencesLectureHall  >= 0
 lin_1_mainDB_traje_firePolice_studentCenter: -1 mainDB_firePolice +1 mainDB_traje_firePolice_studentCenter  <= 0
 lin_2_mainDB_traje_firePolice_studentCenter: -1 traje_studentCenter +1 mainDB_traje_firePolice_studentCenter  <= 0
 lin_3_mainDB_traje_firePolice_studentCenter: -1 mainDB_firePolice -1 traje_studentCenter +1 mainDB_traje_firePolice_studentCenter  >= -1
 firePolice_studentCenter_bw_rhs: +2.5 mainDB_traje_firePolice_studentCenter  <= 97
 firePolice_studentCenter_bw_lhs: +2.5 mainDB_traje_firePolice_studentCenter  >= 0
 lin_1_detector_recognizer_firePolice_isp: -1 detector_firePolice +1 detector_recognizer_firePolice_isp  <= 0
 lin_2_detector_recognizer_firePolice_isp: -1 recognizer_isp +1 detector_recognizer_firePolice_isp  <= 0
 lin_3_detector_recognizer_firePolice_isp: -1 detector_firePolice -1 recognizer_isp +1 detector_recognizer_firePolice_isp  >= -1
 firePolice_isp_bw_rhs: +2.5 detector_recognizer_firePolice_isp  <= 97
 firePolice_isp_bw_lhs: +2.5 detector_recognizer_firePolice_isp  >= 0
 lin_1_mainDB_traje_firePolice_uc_cloud: -1 mainDB_firePolice +1 mainDB_traje_firePolice_uc_cloud  <= 0
 lin_2_mainDB_traje_firePolice_uc_cloud: -1 traje_uc_cloud +1 mainDB_traje_firePolice_uc_cloud  <= 0
 lin_3_mainDB_traje_firePolice_uc_cloud: -1 mainDB_firePolice -1 traje_uc_cloud +1 mainDB_traje_firePolice_uc_cloud  >= -1
 firePolice_uc_cloud_bw_rhs: +2.5 mainDB_traje_firePolice_uc_cloud  <= 97
 firePolice_uc_cloud_bw_lhs: +2.5 mainDB_traje_firePolice_uc_cloud  >= 0
 lin_1_mainDB_traje_studentCenter_parkingServices: -1 mainDB_studentCenter +1 mainDB_traje_studentCenter_parkingServices  <= 0
 lin_2_mainDB_traje_studentCenter_parkingServices: -1 traje_parkingServices +1 mainDB_traje_studentCenter_parkingServices  <= 0
 lin_3_mainDB_traje_studentCenter_parkingServices: -1 mainDB_studentCenter -1 traje_parkingServices +1 mainDB_traje_studentCenter_parkingServices  >= -1
 studentCenter_parkingServices_bw_rhs: +2.5 mainDB_traje_studentCenter_parkingServices  <= 97
 studentCenter_parkingServices_bw_lhs: +2.5 mainDB_traje_studentCenter_parkingServices  >= 0
 lin_1_mainDB_traje_studentCenter_lifeSciences: -1 mainDB_studentCenter +1 mainDB_traje_studentCenter_lifeSciences  <= 0
 lin_2_mainDB_traje_studentCenter_lifeSciences: -1 traje_lifeSciences +1 mainDB_traje_studentCenter_lifeSciences  <= 0
 lin_3_mainDB_traje_studentCenter_lifeSciences: -1 mainDB_studentCenter -1 traje_lifeSciences +1 mainDB_traje_studentCenter_lifeSciences  >= -1
 studentCenter_lifeSciences_bw_rhs: +2.5 mainDB_traje_studentCenter_lifeSciences  <= 97
 studentCenter_lifeSciences_bw_lhs: +2.5 mainDB_traje_studentCenter_lifeSciences  >= 0
 lin_1_traje_logger_studentCenter_sciencesLectureHall: -1 traje_studentCenter +1 traje_logger_studentCenter_sciencesLectureHall  <= 0
 lin_2_traje_logger_studentCenter_sciencesLectureHall: -1 logger_sciencesLectureHall +1 traje_logger_studentCenter_sciencesLectureHall  <= 0
 lin_3_traje_logger_studentCenter_sciencesLectureHall: -1 traje_studentCenter -1 logger_sciencesLectureHall +1 traje_logger_studentCenter_sciencesLectureHall  >= -1
 studentCenter_sciencesLectureHall_bw_rhs: +2.5 traje_logger_studentCenter_sciencesLectureHall  <= 97
 studentCenter_sciencesLectureHall_bw_lhs: +2.5 traje_logger_studentCenter_sciencesLectureHall  >= 0
 lin_1_mainDB_traje_studentCenter_firePolice: -1 mainDB_studentCenter +1 mainDB_traje_studentCenter_firePolice  <= 0
 lin_2_mainDB_traje_studentCenter_firePolice: -1 traje_firePolice +1 mainDB_traje_studentCenter_firePolice  <= 0
 lin_3_mainDB_traje_studentCenter_firePolice: -1 mainDB_studentCenter -1 traje_firePolice +1 mainDB_traje_studentCenter_firePolice  >= -1
 studentCenter_firePolice_bw_rhs: +2.5 mainDB_traje_studentCenter_firePolice  <= 97
 studentCenter_firePolice_bw_lhs: +2.5 mainDB_traje_studentCenter_firePolice  >= 0
 lin_1_mainDB_traje_studentCenter_uc_cloud: -1 mainDB_studentCenter +1 mainDB_traje_studentCenter_uc_cloud  <= 0
 lin_2_mainDB_traje_studentCenter_uc_cloud: -1 traje_uc_cloud +1 mainDB_traje_studentCenter_uc_cloud  <= 0
 lin_3_mainDB_traje_studentCenter_uc_cloud: -1 mainDB_studentCenter -1 traje_uc_cloud +1 mainDB_traje_studentCenter_uc_cloud  >= -1
 studentCenter_uc_cloud_bw_rhs: +2.5 mainDB_traje_studentCenter_uc_cloud  <= 97
 studentCenter_uc_cloud_bw_lhs: +2.5 mainDB_traje_studentCenter_uc_cloud  >= 0
 lin_1_recognizer_traje_isp_parkingServices: -1 recognizer_isp +1 recognizer_traje_isp_parkingServices  <= 0
 lin_2_recognizer_traje_isp_parkingServices: -1 traje_parkingServices +1 recognizer_traje_isp_parkingServices  <= 0
 lin_3_recognizer_traje_isp_parkingServices: -1 recognizer_isp -1 traje_parkingServices +1 recognizer_traje_isp_parkingServices  >= -1
 isp_parkingServices_bw_rhs: +2.5 recognizer_traje_isp_parkingServices  <= 97
 isp_parkingServices_bw_lhs: +2.5 recognizer_traje_isp_parkingServices  >= 0
 lin_1_recognizer_traje_isp_lifeSciences: -1 recognizer_isp +1 recognizer_traje_isp_lifeSciences  <= 0
 lin_2_recognizer_traje_isp_lifeSciences: -1 traje_lifeSciences +1 recognizer_traje_isp_lifeSciences  <= 0
 lin_3_recognizer_traje_isp_lifeSciences: -1 recognizer_isp -1 traje_lifeSciences +1 recognizer_traje_isp_lifeSciences  >= -1
 isp_lifeSciences_bw_rhs: +2.5 recognizer_traje_isp_lifeSciences  <= 97
 isp_lifeSciences_bw_lhs: +2.5 recognizer_traje_isp_lifeSciences  >= 0
 lin_1_recognizer_traje_isp_firePolice: -1 recognizer_isp +1 recognizer_traje_isp_firePolice  <= 0
 lin_2_recognizer_traje_isp_firePolice: -1 traje_firePolice +1 recognizer_traje_isp_firePolice  <= 0
 lin_3_recognizer_traje_isp_firePolice: -1 recognizer_isp -1 traje_firePolice +1 recognizer_traje_isp_firePolice  >= -1
 lin_1_recognizer_mainDB_isp_firePolice: -1 recognizer_isp +1 recognizer_mainDB_isp_firePolice  <= 0
 lin_2_recognizer_mainDB_isp_firePolice: -1 mainDB_firePolice +1 recognizer_mainDB_isp_firePolice  <= 0
 lin_3_recognizer_mainDB_isp_firePolice: -1 mainDB_firePolice -1 recognizer_isp +1 recognizer_mainDB_isp_firePolice  >= -1
 isp_firePolice_bw_rhs: +2.5 recognizer_traje_isp_firePolice +2.5 recognizer_mainDB_isp_firePolice  <= 97
 isp_firePolice_bw_lhs: +2.5 recognizer_traje_isp_firePolice +2.5 recognizer_mainDB_isp_firePolice  >= 0
 lin_1_recognizer_traje_isp_studentCenter: -1 recognizer_isp +1 recognizer_traje_isp_studentCenter  <= 0
 lin_2_recognizer_traje_isp_studentCenter: -1 traje_studentCenter +1 recognizer_traje_isp_studentCenter  <= 0
 lin_3_recognizer_traje_isp_studentCenter: -1 recognizer_isp -1 traje_studentCenter +1 recognizer_traje_isp_studentCenter  >= -1
 lin_1_recognizer_mainDB_isp_studentCenter: -1 recognizer_isp +1 recognizer_mainDB_isp_studentCenter  <= 0
 lin_2_recognizer_mainDB_isp_studentCenter: -1 mainDB_studentCenter +1 recognizer_mainDB_isp_studentCenter  <= 0
 lin_3_recognizer_mainDB_isp_studentCenter: -1 mainDB_studentCenter -1 recognizer_isp +1 recognizer_mainDB_isp_studentCenter  >= -1
 isp_studentCenter_bw_rhs: +2.5 recognizer_traje_isp_studentCenter +2.5 recognizer_mainDB_isp_studentCenter  <= 97
 isp_studentCenter_bw_lhs: +2.5 recognizer_traje_isp_studentCenter +2.5 recognizer_mainDB_isp_studentCenter  >= 0
 lin_1_recognizer_traje_isp_uc_cloud: -1 recognizer_isp +1 recognizer_traje_isp_uc_cloud  <= 0
 lin_2_recognizer_traje_isp_uc_cloud: -1 traje_uc_cloud +1 recognizer_traje_isp_uc_cloud  <= 0
 lin_3_recognizer_traje_isp_uc_cloud: -1 recognizer_isp -1 traje_uc_cloud +1 recognizer_traje_isp_uc_cloud  >= -1
 lin_1_recognizer_mainDB_isp_uc_cloud: -1 recognizer_isp +1 recognizer_mainDB_isp_uc_cloud  <= 0
 lin_2_recognizer_mainDB_isp_uc_cloud: -1 mainDB_uc_cloud +1 recognizer_mainDB_isp_uc_cloud  <= 0
 lin_3_recognizer_mainDB_isp_uc_cloud: -1 mainDB_uc_cloud -1 recognizer_isp +1 recognizer_mainDB_isp_uc_cloud  >= -1
 isp_uc_cloud_bw_rhs: +2.5 recognizer_traje_isp_uc_cloud +2.5 recognizer_mainDB_isp_uc_cloud  <= 97
 isp_uc_cloud_bw_lhs: +2.5 recognizer_traje_isp_uc_cloud +2.5 recognizer_mainDB_isp_uc_cloud  >= 0
 lin_1_mainDB_traje_uc_cloud_parkingServices: -1 mainDB_uc_cloud +1 mainDB_traje_uc_cloud_parkingServices  <= 0
 lin_2_mainDB_traje_uc_cloud_parkingServices: -1 traje_parkingServices +1 mainDB_traje_uc_cloud_parkingServices  <= 0
 lin_3_mainDB_traje_uc_cloud_parkingServices: -1 mainDB_uc_cloud -1 traje_parkingServices +1 mainDB_traje_uc_cloud_parkingServices  >= -1
 uc_cloud_parkingServices_bw_rhs: +2.5 mainDB_traje_uc_cloud_parkingServices  <= 97
 uc_cloud_parkingServices_bw_lhs: +2.5 mainDB_traje_uc_cloud_parkingServices  >= 0
 lin_1_detector_recognizer_uc_cloud_mannLab: -1 detector_uc_cloud +1 detector_recognizer_uc_cloud_mannLab  <= 0
 lin_2_detector_recognizer_uc_cloud_mannLab: -1 recognizer_mannLab +1 detector_recognizer_uc_cloud_mannLab  <= 0
 lin_3_detector_recognizer_uc_cloud_mannLab: -1 detector_uc_cloud -1 recognizer_mannLab +1 detector_recognizer_uc_cloud_mannLab  >= -1
 uc_cloud_mannLab_bw_rhs: +2.5 detector_recognizer_uc_cloud_mannLab  <= 97
 uc_cloud_mannLab_bw_lhs: +2.5 detector_recognizer_uc_cloud_mannLab  >= 0
 lin_1_mainDB_traje_uc_cloud_lifeSciences: -1 mainDB_uc_cloud +1 mainDB_traje_uc_cloud_lifeSciences  <= 0
 lin_2_mainDB_traje_uc_cloud_lifeSciences: -1 traje_lifeSciences +1 mainDB_traje_uc_cloud_lifeSciences  <= 0
 lin_3_mainDB_traje_uc_cloud_lifeSciences: -1 mainDB_uc_cloud -1 traje_lifeSciences +1 mainDB_traje_uc_cloud_lifeSciences  >= -1
 uc_cloud_lifeSciences_bw_rhs: +2.5 mainDB_traje_uc_cloud_lifeSciences  <= 97
 uc_cloud_lifeSciences_bw_lhs: +2.5 mainDB_traje_uc_cloud_lifeSciences  >= 0
 lin_1_traje_logger_uc_cloud_sciencesLectureHall: -1 traje_uc_cloud +1 traje_logger_uc_cloud_sciencesLectureHall  <= 0
 lin_2_traje_logger_uc_cloud_sciencesLectureHall: -1 logger_sciencesLectureHall +1 traje_logger_uc_cloud_sciencesLectureHall  <= 0
 lin_3_traje_logger_uc_cloud_sciencesLectureHall: -1 traje_uc_cloud -1 logger_sciencesLectureHall +1 traje_logger_uc_cloud_sciencesLectureHall  >= -1
 uc_cloud_sciencesLectureHall_bw_rhs: +2.5 traje_logger_uc_cloud_sciencesLectureHall  <= 97
 uc_cloud_sciencesLectureHall_bw_lhs: +2.5 traje_logger_uc_cloud_sciencesLectureHall  >= 0
 lin_1_mainDB_traje_uc_cloud_firePolice: -1 mainDB_uc_cloud +1 mainDB_traje_uc_cloud_firePolice  <= 0
 lin_2_mainDB_traje_uc_cloud_firePolice: -1 traje_firePolice +1 mainDB_traje_uc_cloud_firePolice  <= 0
 lin_3_mainDB_traje_uc_cloud_firePolice: -1 mainDB_uc_cloud -1 traje_firePolice +1 mainDB_traje_uc_cloud_firePolice  >= -1
 uc_cloud_firePolice_bw_rhs: +2.5 mainDB_traje_uc_cloud_firePolice  <= 97
 uc_cloud_firePolice_bw_lhs: +2.5 mainDB_traje_uc_cloud_firePolice  >= 0
 lin_1_mainDB_traje_uc_cloud_studentCenter: -1 mainDB_uc_cloud +1 mainDB_traje_uc_cloud_studentCenter  <= 0
 lin_2_mainDB_traje_uc_cloud_studentCenter: -1 traje_studentCenter +1 mainDB_traje_uc_cloud_studentCenter  <= 0
 lin_3_mainDB_traje_uc_cloud_studentCenter: -1 mainDB_uc_cloud -1 traje_studentCenter +1 mainDB_traje_uc_cloud_studentCenter  >= -1
 uc_cloud_studentCenter_bw_rhs: +2.5 mainDB_traje_uc_cloud_studentCenter  <= 97
 uc_cloud_studentCenter_bw_lhs: +2.5 mainDB_traje_uc_cloud_studentCenter  >= 0
 lin_1_detector_recognizer_uc_cloud_isp: -1 detector_uc_cloud +1 detector_recognizer_uc_cloud_isp  <= 0
 lin_2_detector_recognizer_uc_cloud_isp: -1 recognizer_isp +1 detector_recognizer_uc_cloud_isp  <= 0
 lin_3_detector_recognizer_uc_cloud_isp: -1 detector_uc_cloud -1 recognizer_isp +1 detector_recognizer_uc_cloud_isp  >= -1
 uc_cloud_isp_bw_rhs: +2.5 detector_recognizer_uc_cloud_isp  <= 97
 uc_cloud_isp_bw_lhs: +2.5 detector_recognizer_uc_cloud_isp  >= 0
Bounds
 0 <= b_parkingServices <= 1
 0 <= b_westEntry <= 1
 0 <= b_kleiberHall <= 1
 0 <= b_hoaglandAnnex <= 1
 0 <= b_briggsHall <= 1
 0 <= b_mannLab <= 1
 0 <= b_lifeSciences <= 1
 0 <= b_sciencesLectureHall <= 1
 0 <= b_firePolice <= 1
 0 <= b_studentCenter <= 1
 0 <= b_isp <= 1
 0 <= b_uc_cloud <= 1
 0 <= mainDB_firePolice <= 1
 0 <= mainDB_studentCenter <= 1
 0 <= mainDB_uc_cloud <= 1
 0 <= detector_parkingServices <= 1
 0 <= detector_firePolice <= 1
 0 <= detector_uc_cloud <= 1
 0 <= recognizer_mannLab <= 1
 0 <= recognizer_isp <= 1
 0 <= traje_parkingServices <= 1
 0 <= traje_lifeSciences <= 1
 0 <= traje_firePolice <= 1
 0 <= traje_studentCenter <= 1
 0 <= traje_uc_cloud <= 1
 0 <= logger_sciencesLectureHall <= 1
 0 <= detector_recognizer_parkingServices_mannLab <= 1
 0 <= traje_logger_parkingServices_sciencesLectureHall <= 1
 0 <= detector_recognizer_parkingServices_isp <= 1
 0 <= cam11_mainDB_westEntry_firePolice <= 1
 0 <= cam21_mainDB_westEntry_firePolice <= 1
 0 <= cam11_mainDB_westEntry_studentCenter <= 1
 0 <= cam21_mainDB_westEntry_studentCenter <= 1
 0 <= cam11_mainDB_westEntry_uc_cloud <= 1
 0 <= cam21_mainDB_westEntry_uc_cloud <= 1
 0 <= recognizer_traje_mannLab_parkingServices <= 1
 0 <= recognizer_traje_mannLab_lifeSciences <= 1
 0 <= recognizer_traje_mannLab_firePolice <= 1
 0 <= recognizer_mainDB_mannLab_firePolice <= 1
 0 <= recognizer_traje_mannLab_studentCenter <= 1
 0 <= recognizer_mainDB_mannLab_studentCenter <= 1
 0 <= recognizer_traje_mannLab_uc_cloud <= 1
 0 <= recognizer_mainDB_mannLab_uc_cloud <= 1
 0 <= cam12_detector_lifeSciences_parkingServices <= 1
 0 <= cam22_detector_lifeSciences_parkingServices <= 1
 0 <= traje_logger_lifeSciences_sciencesLectureHall <= 1
 0 <= cam12_detector_lifeSciences_firePolice <= 1
 0 <= cam22_detector_lifeSciences_firePolice <= 1
 0 <= cam12_detector_lifeSciences_uc_cloud <= 1
 0 <= cam22_detector_lifeSciences_uc_cloud <= 1
 0 <= logger_mainDB_sciencesLectureHall_firePolice <= 1
 0 <= logger_mainDB_sciencesLectureHall_studentCenter <= 1
 0 <= logger_mainDB_sciencesLectureHall_uc_cloud <= 1
 0 <= mainDB_traje_firePolice_parkingServices <= 1
 0 <= detector_recognizer_firePolice_mannLab <= 1
 0 <= mainDB_traje_firePolice_lifeSciences <= 1
 0 <= traje_logger_firePolice_sciencesLectureHall <= 1
 0 <= mainDB_traje_firePolice_studentCenter <= 1
 0 <= detector_recognizer_firePolice_isp <= 1
 0 <= mainDB_traje_firePolice_uc_cloud <= 1
 0 <= mainDB_traje_studentCenter_parkingServices <= 1
 0 <= mainDB_traje_studentCenter_lifeSciences <= 1
 0 <= traje_logger_studentCenter_sciencesLectureHall <= 1
 0 <= mainDB_traje_studentCenter_firePolice <= 1
 0 <= mainDB_traje_studentCenter_uc_cloud <= 1
 0 <= recognizer_traje_isp_parkingServices <= 1
 0 <= recognizer_traje_isp_lifeSciences <= 1
 0 <= recognizer_traje_isp_firePolice <= 1
 0 <= recognizer_mainDB_isp_firePolice <= 1
 0 <= recognizer_traje_isp_studentCenter <= 1
 0 <= recognizer_mainDB_isp_studentCenter <= 1
 0 <= recognizer_traje_isp_uc_cloud <= 1
 0 <= recognizer_mainDB_isp_uc_cloud <= 1
 0 <= mainDB_traje_uc_cloud_parkingServices <= 1
 0 <= detector_recognizer_uc_cloud_mannLab <= 1
 0 <= mainDB_traje_uc_cloud_lifeSciences <= 1
 0 <= traje_logger_uc_cloud_sciencesLectureHall <= 1
 0 <= mainDB_traje_uc_cloud_firePolice <= 1
 0 <= mainDB_traje_uc_cloud_studentCenter <= 1
 0 <= detector_recognizer_uc_cloud_isp <= 1
Binaries
 b_parkingServices
 b_westEntry
 b_kleiberHall
 b_hoaglandAnnex
 b_briggsHall
 b_mannLab
 b_lifeSciences
 b_sciencesLectureHall
 b_firePolice
 b_studentCenter
 b_isp
 b_uc_cloud
 mainDB_firePolice
 mainDB_studentCenter
 mainDB_uc_cloud
 detector_parkingServices
 detector_firePolice
 detector_uc_cloud
 recognizer_mannLab
 recognizer_isp
 traje_parkingServices
 traje_lifeSciences
 traje_firePolice
 traje_studentCenter
 traje_uc_cloud
 logger_sciencesLectureHall
 detector_recognizer_parkingServices_mannLab
 traje_logger_parkingServices_sciencesLectureHall
 detector_recognizer_parkingServices_isp
 cam11_mainDB_westEntry_firePolice
 cam21_mainDB_westEntry_firePolice
 cam11_mainDB_westEntry_studentCenter
 cam21_mainDB_westEntry_studentCenter
 cam11_mainDB_westEntry_uc_cloud
 cam21_mainDB_westEntry_uc_cloud
 recognizer_traje_mannLab_parkingServices
 recognizer_traje_mannLab_lifeSciences
 recognizer_traje_mannLab_firePolice
 recognizer_mainDB_mannLab_firePolice
 recognizer_traje_mannLab_studentCenter
 recognizer_mainDB_mannLab_studentCenter
 recognizer_traje_mannLab_uc_cloud
 recognizer_mainDB_mannLab_uc_cloud
 cam12_detector_lifeSciences_parkingServices
 cam22_detector_lifeSciences_parkingServices
 traje_logger_lifeSciences_sciencesLectureHall
 cam12_detector_lifeSciences_firePolice
 cam22_detector_lifeSciences_firePolice
 cam12_detector_lifeSciences_uc_cloud
 cam22_detector_lifeSciences_uc_cloud
 logger_mainDB_sciencesLectureHall_firePolice
 logger_mainDB_sciencesLectureHall_studentCenter
 logger_mainDB_sciencesLectureHall_uc_cloud
 mainDB_traje_firePolice_parkingServices
 detector_recognizer_firePolice_mannLab
 mainDB_traje_firePolice_lifeSciences
 traje_logger_firePolice_sciencesLectureHall
 mainDB_traje_firePolice_studentCenter
 detector_recognizer_firePolice_isp
 mainDB_traje_firePolice_uc_cloud
 mainDB_traje_studentCenter_parkingServices
 mainDB_traje_studentCenter_lifeSciences
 traje_logger_studentCenter_sciencesLectureHall
 mainDB_traje_studentCenter_firePolice
 mainDB_traje_studentCenter_uc_cloud
 recognizer_traje_isp_parkingServices
 recognizer_traje_isp_lifeSciences
 recognizer_traje_isp_firePolice
 recognizer_mainDB_isp_firePolice
 recognizer_traje_isp_studentCenter
 recognizer_mainDB_isp_studentCenter
 recognizer_traje_isp_uc_cloud
 recognizer_mainDB_isp_uc_cloud
 mainDB_traje_uc_cloud_parkingServices
 detector_recognizer_uc_cloud_mannLab
 mainDB_traje_uc_cloud_lifeSciences
 traje_logger_uc_cloud_sciencesLectureHall
 mainDB_traje_uc_cloud_firePolice
 mainDB_traje_uc_cloud_studentCenter
 detector_recognizer_uc_cloud_isp
End

